0 0 0 0
0 1 0 0
0 2 1 0
0 3 0 0
0 4 0 1
0 5 0 8
0 6 0 3
0 7 0 8
0 8 0 14
0 9 0 13
0 10 0 16
0 11 1 19
0 12 0 22
0 13 0 28
0 14 1 33
0 15 0 9
0 16 0 21
0 17 1 30
0 18 0 29
0 19 0 30
0 20 0 12
0 21 0 37
0 22 0 26
0 23 2 13
0 24 0 29
0 25 0 35
0 26 0 39
0 27 1 33
0 28 2 36
0 29 0 41
0 30 0 44
0 31 0 45
